proyfinal/src/viki/013/experimentInOfficeAgust.take6.output/ff1c3d81-b44d-4355-bad3-ffc7640bca6b.als.out
Reading from standard input... Use '--help' for help.
============================[ Problem Statistics ]=============================
|                                                                             |
|  Number of variables:         87638                                         |
|  Number of clauses:          161767                                         |
|  Parse time:                   0.04 s                                       |
|                                                                             |
============================[ Search Statistics ]==============================
| Conflicts |          ORIGINAL         |          LEARNT          | Progress |
|           |    Vars  Clauses Literals |    Limit  Clauses Lit/Cl |          |
===============================================================================
|       100 |   65263   115630   288320 |    42397      100      9 | 25.531 % |
|       250 |   65263   115630   288320 |    46637      250     41 | 25.531 % |
|       475 |   65263   115630   288320 |    51301      475     49 | 25.531 % |
|       812 |   65263   115630   288320 |    56431      812     78 | 25.531 % |
|      1318 |   65262   115586   288230 |    62074     1316     65 | 25.532 % |
|      2077 |   65234   115470   287965 |    68281     2074     68 | 25.564 % |
|      3216 |   65225   115437   287881 |    75110     3210     70 | 25.575 % |
|      4924 |   65223   115427   287857 |    82621     4916     69 | 25.577 % |
|      7486 |   65207   115361   287704 |    90883     7477     87 | 25.595 % |
|     11330 |   57994    91699   228872 |    99971    10451     86 | 33.826 % |
|     17096 |   57867    91107   227417 |   109968    16153     81 | 33.970 % |
===============================================================================
restarts              : 69
conflicts             : 19876          (8555 /sec)
decisions             : 74778          (0.00 % random) (32187 /sec)
propagations          : 25340440       (10907530 /sec)
conflict literals     : 1522856        (45.32 % deleted)
Memory used           : 43.91 MB
CPU time              : 2.32321 s

UNSATISFIABLE
